p edge 38 228
e 1 4
e 1 18
e 1 23
e 1 26
e 1 28
e 1 30
e 2 8
e 2 11
e 2 15
e 2 21
e 2 27
e 2 33
e 3 1
e 3 11
e 3 13
e 3 18
e 3 19
e 3 38
e 4 9
e 4 18
e 4 27
e 4 28
e 4 32
e 4 33
e 5 1
e 5 10
e 5 27
e 5 34
e 5 35
e 5 35
e 6 2
e 6 9
e 6 12
e 6 18
e 6 22
e 6 23
e 7 4
e 7 13
e 7 19
e 7 21
e 7 30
e 7 35
e 8 3
e 8 9
e 8 12
e 8 18
e 8 18
e 8 27
e 9 16
e 9 24
e 9 26
e 9 28
e 9 36
e 9 37
e 10 13
e 10 14
e 10 23
e 10 24
e 10 33
e 10 36
e 11 9
e 11 24
e 11 28
e 11 30
e 11 34
e 11 34
e 12 5
e 12 19
e 12 20
e 12 22
e 12 35
e 12 36
e 13 14
e 13 23
e 13 24
e 13 32
e 13 34
e 13 37
e 14 1
e 14 9
e 14 18
e 14 20
e 14 20
e 14 32
e 15 1
e 15 9
e 15 10
e 15 19
e 15 22
e 15 38
e 16 1
e 16 14
e 16 17
e 16 29
e 16 32
e 16 32
e 17 6
e 17 10
e 17 16
e 17 21
e 17 27
e 17 35
e 18 2
e 18 11
e 18 13
e 18 15
e 18 17
e 18 34
e 19 4
e 19 5
e 19 13
e 19 20
e 19 28
e 19 29
e 20 5
e 20 12
e 20 19
e 20 22
e 20 34
e 20 35
e 21 9
e 21 12
e 21 27
e 21 35
e 21 36
e 21 38
e 22 3
e 22 10
e 22 19
e 22 23
e 22 36
e 22 36
e 23 3
e 23 6
e 23 7
e 23 16
e 23 21
e 23 25
e 24 2
e 24 4
e 24 15
e 24 17
e 24 33
e 24 34
e 25 5
e 25 20
e 25 22
e 25 23
e 25 37
e 25 38
e 26 5
e 26 20
e 26 24
e 26 25
e 26 27
e 26 37
e 27 1
e 27 3
e 27 8
e 27 9
e 27 16
e 27 21
e 28 4
e 28 6
e 28 27
e 28 34
e 28 35
e 28 35
e 29 1
e 29 8
e 29 14
e 29 18
e 29 26
e 29 34
e 30 4
e 30 7
e 30 9
e 30 10
e 30 28
e 30 34
e 31 5
e 31 7
e 31 9
e 31 27
e 31 29
e 31 30
e 32 4
e 32 8
e 32 14
e 32 22
e 32 28
e 32 29
e 33 10
e 33 11
e 33 16
e 33 18
e 33 30
e 33 31
e 34 5
e 34 5
e 34 6
e 34 10
e 34 17
e 34 29
e 35 2
e 35 16
e 35 20
e 35 30
e 35 33
e 35 38
e 36 10
e 36 15
e 36 15
e 36 16
e 36 21
e 36 34
e 37 4
e 37 6
e 37 10
e 37 19
e 37 25
e 37 31
e 38 5
e 38 13
e 38 14
e 38 16
e 38 32
e 38 34
